! Solving for graph ../../../benchmarks/abp/Q-494_bus.mtx.rnd
! Target value is set to 220
 ! --------------------------------------------------- CP Optimizer 22.2.0.0 --
 ! Minimization problem - 495 variables, 1080 constraints, 1 phase
 ! TimeLimit            = 1800
 ! LogVerbosity         = Terse
 ! Initial process time : 0.02s (0.02s extraction + 0.00s propagation)
 !  . Log search space  : 4429.4 (before), 4429.4 (after)
 !  . Memory usage      : 723.5 kB (before), 723.5 kB (after)
 ! Using parallel search with 8 workers.
 ! ----------------------------------------------------------------------------
 !          Best Branches  Non-fixed    W       Branch decision
                        0        495                 -
 + New bound is 1
                        0        495    1   F        -
 + New bound is 221
                        2        494    1   F     1 != _int57
 + New bound is 222
 *           441      486  0.18s        1      (gap is 49.66%)
             441     7976        495    2   F        -
 + New bound is 332 (gap is 24.72%)
             441    10284        495    7   F   107 != _int93
 + New bound is 387 (gap is 12.24%)
             441    15650        495    4            -
 + New bound is 441 (gap is 0.00%)
 ! ----------------------------------------------------------------------------
 ! Search completed, 1 solution found.
 ! Best objective         : 441 (optimal - effective tol. is 0)
 ! Best bound             : 441
 ! ----------------------------------------------------------------------------
 ! Number of branches     : 246881
 ! Number of fails        : 122762
 ! Total memory usage     : 45.6 MB (45.2 MB CP Optimizer + 0.4 MB Concert)
 ! Time spent in solve    : 1.86s (1.84s engine + 0.02s extraction)
 ! Search speed (br. / s) : 134174.5
 ! ----------------------------------------------------------------------------
! --------------------------------------------------------
! Best span = 441
! Labeling: 1 1 221 221 1 1 221 1 1 221 221 1 1 221 441 1 1 221 1 221 221 1 1 1 221 1 1 1 1 221 221 1 1 1 221 221 441 221 1 221 1 221 221 1 221 1 1 221 221 221 1 1 1 1 221 221 1 1 221 1 221 221 221 1 221 221 221 1 221 221 221 221 221 221 1 1 1 221 221 1 221 441 1 221 1 1 1 441 441 1 221 221 1 441 221 1 1 221 441 221 221 1 221 1 221 441 221 221 221 221 221 221 221 1 1 221 221 1 1 221 1 1 1 441 221 441 1 1 1 441 1 1 1 441 1 221 1 1 1 221 221 221 1 221 221 221 221 221 221 1 221 221 221 221 221 1 221 221 1 221 221 1 221 221 221 1 221 441 221 221 1 221 221 1 1 221 1 1 1 221 1 1 441 1 1 221 221 221 221 1 1 1 1 1 1 221 221 221 1 221 1 1 1 221 1 1 221 1 221 221 221 441 1 221 441 1 1 1 221 1 221 1 221 221 1 1 221 1 1 441 1 1 1 441 221 221 221 1 221 221 1 221 1 221 1 1 1 1 1 221 221 1 221 1 1 221 1 221 1 221 1 221 441 221 221 221 1 221 221 441 221 221 221 221 441 1 221 221 1 221 221 1 221 221 441 1 1 1 1 221 1 221 441 1 1 1 221 1 221 221 221 1 441 221 1 221 221 221 1 221 441 1 1 1 1 441 1 1 1 1 221 1 221 221 221 1 221 1 221 1 1 221 1 221 1 221 221 1 221 221 1 1 221 1 1 1 1 221 1 1 441 1 1 1 1 221 1 221 1 1 1 221 1 221 1 1 221 1 221 1 1 1 1 221 221 1 1 1 1 1 221 1 1 1 221 221 1 221 1 221 1 1 221 1 441 1 221 441 221 221 221 1 221 221 221 1 221 1 221 1 1 221 1 221 1 221 1 221 1 1 221 1 221 1 221 441 221 221 221 221 221 441 441 441 1 221 1 221 1 1 1 1 1 1 1 221 1 221 1 221 221 221 221 1 1 221 221 441 221 221 1 221 1 1 221 221 1 221 221 441 1 1 1 221 221 441 1 221 221 221 221 221 1 1 1 1 1 1 221 221 221 1 1 221 
! -------------------------------------------------------- 
